516 d 2 4 8 18 22 33 38 45 46 48 49 50 51 52 53 56 58 59 60 61 62 63 65 66 68 69 70 71 72 73 75 76 78 79 80 81 82 83 86 88 89 90 91 92 93 95 96 98 99 100 101 102 103 106 108 109 110 111 112 113 116 118 119 120 121 122 123 125 126 128 129 130 131 132 133 136 138 139 140 141 142 143 145 146 148 149 150 151 152 153 155 156 158 159 160 161 162 163 168 169 170 171 172 173 175 176 177 178 179 180 181 182 186 187 188 189 190 191 195 196 197 198 199 200 202 203 204 205 206 207 208 209 213 214 215 216 217 218 220 222 223 224 225 226 227 229 230 231 232 233 234 235 238 239 240 241 242 243 245 246 247 248 249 250 251 254 255 256 257 258 259 262 263 264 265 266 267 269 270 271 272 273 274 276 277 278 279 280 281 283 284 285 286 287 288 290 291 292 293 294 295 297 298 299 300 301 302 304 305 306 307 308 309 310 311 312 313 314 315 316 317 318 319 320 321 322 323 324 325 326 327 328 329 330 331 332 333 334 335 336 337 338 339 340 341 342 343 344 345 346 347 348 349 350 351 352 353 354 355 356 357 358 359 360 361 362 363 364 365 366 367 368 369 370 371 372 373 374 375 376 377 378 379 380 381 382 383 384 385 386 387 388 389 390 391 392 393 394 395 396 397 398 399 400 401 402 403 404 405 406 407 408 409 410 411 412 413 414 415 416 417 418 419 420 421 422 423 424 425 426 427 428 429 430 431 432 433 434 435 436 437 438 439 440 441 442 443 444 445 446 447 448 449 450 451 452 453 454 455 456 457 458 459 460 461 462 463 464 465 466 467 468 469 470 471 472 473 474 475 476 477 478 479 480 481 482 483 484 485 486 487 488 489 490 491 492 493 494 495 496 497 498 499 500 501 502 503 504 505 506 507 508 509 510 511 512 513 514 515 516 0
517 37 -42 0 260 107 166 37 211 26 134 135 21 55 275 5 0
517 d 107 166 211 134 135 55 275 5 0
518 -42 -43 0 517 1 137 194 237 282 34 164 23 165 85 144 6 54 39 29 117 210 12 13 244 77 28 40 94 3 104 67 24 17 252 11 201 127 35 30 154 19 44 9 289 0
518 d 1 237 282 34 23 165 85 144 6 39 29 117 210 12 13 244 77 28 40 94 104 67 24 17 252 201 127 30 154 44 289 0
519 -43 0 518 157 253 212 296 32 183 21 54 184 185 16 47 105 164 43 74 27 228 37 11 97 137 10 3 64 31 260 26 219 15 114 42 87 0
519 d 518 212 296 32 21 54 184 185 16 105 164 43 37 11 137 3 260 219 114 87 0
563 0 519 167 221 261 303 31 20 64 192 193 194 115 174 15 36 57 147 42 7 84 268 26 25 236 124 10 41 517 97 157 253 14 35 228 183 27 19 74 47 9 0
